(set-logic QF_S)
(declare-fun var0 () String)
(declare-fun var1 () String)
(declare-fun var2 () String)
(declare-fun var3 () String)
(declare-fun var4 () Int)
(declare-fun var5 () Int)
(declare-fun var6 () Int)
(declare-fun var7 () Int)
(assert (str.contains var0 var1))
(assert (str.suffixof (str.at (str.replace var2 var3 "4JzJ") (str.indexof var3 "5" var4)) (str.at var2 var5)))
(assert (< var6 var7))
(assert (str.prefixof (str.replace (str.replace var1 var0 var3) (str.at var0 var7) (str.substr var2 var6 var5)) (str.at var1 var7)))
(check-sat)